NAME : census.pruned_local_16.-59727491.tour
COMMENT : Length = -59727491
TYPE : TOUR
DIMENSION : 68
TOUR_SECTION
60
7
46
31
15
25
35
6
62
14
13
11
4
10
12
56
41
64
43
40
2
39
50
3
1
54
66
27
33
34
37
52
47
32
9
8
63
67
49
42
36
30
28
26
24
23
22
21
20
19
18
17
16
5
38
44
45
29
51
48
55
57
58
59
61
53
68
65
-1
EOF
